Traveling Salesman Problem/TSP_generados/Aleatorio1620390930_9.tsp
NAME: Aleatorio1620390930_9.tsp
COMMENT: Randomly generated scenario
TYPE: TSP
DIMENSION: 9
EDGE_WEIGHT_TYPE: ATT
NODE_COORD_SECTION
1 34.91 5.54
2 13.94 2.47
3 32.4 32.26
4 32.46 13.64
5 14.9 15.1
6 45.71 21.78
7 49.96 15.32
8 37.2 38.55
9 2.88 34.85
