Traveling Salesman Problem/TSP_generados/Aleatorio1620390930_9.opt.tour
NAME: Aleatorio1620390930_9.opt.tour
COMMENT: Optimal solution for Aleatorio1620390930_9 (147.10702539792644)
TYPE: TOUR
DIMENSION: 9
TOUR_SECTION
1 2 5 9 3 8 6 7 4
-1
EOF
